;; sequence(s): A141775
;; terms: 1 3 5 8 15 31 64 129 257 512 1023 2047 4096 8193 16385 32768 65535 131071 262144 524289
;; small program: loop(x + x, x, 1) + loop2(y, y - x, x, 0, 1)
;; fast program: (((1 - loop(x + x, x mod 2, x)) mod (1 + 2)) - 1) + loop(x + x, x mod 2, loop(x * x, 1, loop(x + x, x div 2, 1)))
(set-logic UFNIA)
(define-fun divf ((a Int) (b Int)) Int (ite (< 0 b) (div a b) (div (- a) (- b))))
(define-fun modf ((a Int) (b Int)) Int (ite (< 0 b) (mod a b) (- (mod (- a) (- b)))))
(declare-fun f0 (Int) Int)
(declare-fun g0 (Int) Int)
(declare-fun h0 () Int)
(declare-fun u0 (Int Int) Int)
(declare-fun v0 (Int) Int)
(declare-fun f1 (Int Int) Int)
(declare-fun g1 (Int Int) Int)
(declare-fun h1 (Int) Int)
(declare-fun i1 () Int)
(declare-fun j1 () Int)
(declare-fun u1 (Int Int Int) Int)
(declare-fun v1 (Int Int Int) Int)
(declare-fun w1 (Int) Int)
(declare-fun small (Int) Int)
(declare-fun f2 (Int) Int)
(declare-fun g2 (Int) Int)
(declare-fun h2 (Int) Int)
(declare-fun u2 (Int Int) Int)
(declare-fun v2 (Int) Int)
(declare-fun f3 (Int) Int)
(declare-fun g3 (Int) Int)
(declare-fun f4 (Int) Int)
(declare-fun g4 () Int)
(declare-fun f5 (Int) Int)
(declare-fun g5 (Int) Int)
(declare-fun h5 () Int)
(declare-fun u5 (Int Int) Int)
(declare-fun v5 (Int) Int)
(declare-fun h4 (Int) Int)
(declare-fun u4 (Int Int) Int)
(declare-fun v4 (Int) Int)
(declare-fun h3 (Int) Int)
(declare-fun u3 (Int Int) Int)
(declare-fun v3 (Int) Int)
(declare-fun fast (Int) Int)
(assert (forall ((x Int)) (= (f0 x) (+ x x))))
(assert (forall ((x Int)) (= (g0 x) x)))
(assert (= h0 1))
(assert (forall ((x Int) (y Int)) (= (u0 x y) (ite (<= x 0) y (f0 (u0 (- x 1) y))))))
(assert (forall ((x Int)) (= (v0 x) (u0 (g0 x) h0))))
(assert (forall ((x Int) (y Int)) (= (f1 x y) y)))
(assert (forall ((x Int) (y Int)) (= (g1 x y) (- y x))))
(assert (forall ((x Int)) (= (h1 x) x)))
(assert (= i1 0))
(assert (= j1 1))
(assert (forall ((x Int) (y Int) (z Int)) (= (u1 x y z) (ite (<= x 0) y (f1 (u1 (- x 1) y z) (v1 (- x 1) y z))))))
(assert (forall ((x Int) (y Int) (z Int)) (= (v1 x y z) (ite (<= x 0) z (g1 (u1 (- x 1) y z) (v1 (- x 1) y z))))))
(assert (forall ((x Int)) (= (w1 x) (u1 (h1 x) i1 j1))))
(assert (forall ((x Int)) (= (small x) (+ (v0 x) (w1 x)))))
(assert (forall ((x Int)) (= (f2 x) (+ x x))))
(assert (forall ((x Int)) (= (g2 x) (modf x 2))))
(assert (forall ((x Int)) (= (h2 x) x)))
(assert (forall ((x Int) (y Int)) (= (u2 x y) (ite (<= x 0) y (f2 (u2 (- x 1) y))))))
(assert (forall ((x Int)) (= (v2 x) (u2 (g2 x) (h2 x)))))
(assert (forall ((x Int)) (= (f3 x) (+ x x))))
(assert (forall ((x Int)) (= (g3 x) (modf x 2))))
(assert (forall ((x Int)) (= (f4 x) (* x x))))
(assert (= g4 1))
(assert (forall ((x Int)) (= (f5 x) (+ x x))))
(assert (forall ((x Int)) (= (g5 x) (divf x 2))))
(assert (= h5 1))
(assert (forall ((x Int) (y Int)) (= (u5 x y) (ite (<= x 0) y (f5 (u5 (- x 1) y))))))
(assert (forall ((x Int)) (= (v5 x) (u5 (g5 x) h5))))
(assert (forall ((x Int)) (= (h4 x) (v5 x))))
(assert (forall ((x Int) (y Int)) (= (u4 x y) (ite (<= x 0) y (f4 (u4 (- x 1) y))))))
(assert (forall ((x Int)) (= (v4 x) (u4 g4 (h4 x)))))
(assert (forall ((x Int)) (= (h3 x) (v4 x))))
(assert (forall ((x Int) (y Int)) (= (u3 x y) (ite (<= x 0) y (f3 (u3 (- x 1) y))))))
(assert (forall ((x Int)) (= (v3 x) (u3 (g3 x) (h3 x)))))
(assert (forall ((x Int)) (= (fast x) (+ (- (modf (- 1 (v2 x)) (+ 1 2)) 1) (v3 x)))))
(assert (exists ((c Int)) (and (>= c 0) (not (= (small c) (fast c))))))
(check-sat)
